
Gurobi 10.0.1 (linux64) logging started Wed May 31 13:51:28 2023

Set parameter LogFile to value "logFiles/A-2L-A/A-2L-6U-29F-15V-240D-basic.log"
Gurobi Optimizer version 10.0.1 build v10.0.1rc0 (linux64)

CPU model: Intel(R) Xeon(R) Gold 5115 CPU @ 2.40GHz, instruction set [SSE2|AVX|AVX2|AVX512]
Thread count: 20 physical cores, 40 logical processors, using up to 20 threads

Optimize a model with 46969 rows, 892535 columns and 6369024 nonzeros
Model fingerprint: 0x0efae3a6
Variable types: 1956 continuous, 890579 integer (890579 binary)
Coefficient statistics:
  Matrix range     [1e+00, 2e+05]
  Objective range  [4e+01, 2e+07]
  Bounds range     [1e+00, 1e+00]
  RHS range        [1e+00, 4e+06]
Presolve removed 13931 rows and 12605 columns (presolve time = 5s) ...
Presolve removed 16517 rows and 12605 columns (presolve time = 10s) ...
Presolve removed 16517 rows and 12605 columns (presolve time = 15s) ...
Presolve removed 16517 rows and 12605 columns (presolve time = 20s) ...
Presolve removed 16435 rows and 12574 columns
Presolve time: 24.92s
Presolved: 30534 rows, 879961 columns, 5051928 nonzeros
Variable types: 1971 continuous, 877990 integer (877952 binary)
Deterministic concurrent LP optimizer: primal simplex, dual simplex, and barrier
Showing barrier log only...

Root barrier log...

Ordering time: 2.43s

Barrier statistics:
 AA' NZ     : 2.290e+06
 Factor NZ  : 2.763e+07 (roughly 600 MB of memory)
 Factor Ops : 1.036e+11 (roughly 1 second per iteration)
 Threads    : 17

                  Objective                Residual
Iter       Primal          Dual         Primal    Dual     Compl     Time
   0  -8.74663464e+16  1.65786023e+12  9.56e+09 4.36e+05  1.67e+11    37s
   1  -1.96054742e+16  3.34942321e+12  2.16e+09 3.71e+05  3.79e+10    38s
   2  -1.92200481e+15  3.59132467e+12  2.12e+08 1.80e+03  3.78e+09    39s
   3  -8.25201603e+13  2.05604374e+12  9.09e+06 3.01e+01  1.64e+08    39s
   4  -2.10048891e+13  6.55842702e+11  2.31e+06 1.28e-09  4.30e+07    40s
   5  -1.89145455e+12  5.04892793e+11  2.08e+05 1.05e-09  4.21e+06    42s
   6  -5.78482903e+11  3.86842677e+11  6.38e+04 8.73e-10  1.39e+06    42s
   7  -1.97762981e+11  2.97277397e+11  2.19e+04 9.31e-10  5.51e+05    43s
   8  -7.32346015e+10  1.97475337e+11  8.24e+03 8.15e-10  2.42e+05    44s
   9  -1.89753842e+10  6.23055764e+10  2.27e+03 1.05e-09  6.32e+04    45s
  10  -7.23565090e+09  4.21830495e+10  9.79e+02 1.48e-09  3.47e+04    45s
  11  -3.96997343e+08  1.91707640e+10  2.37e+02 2.26e-09  1.26e+04    46s
  12   5.24698238e+08  7.87895698e+09  1.38e+02 2.66e-09  4.92e+03    47s
  13   1.30011740e+09  5.13313192e+09  5.41e+01 4.24e-09  2.49e+03    48s
  14   1.44385836e+09  4.11858369e+09  3.90e+01 5.36e-09  1.74e+03    49s
  15   1.59012243e+09  3.00797120e+09  2.42e+01 6.60e-09  9.35e+02    50s
  16   1.66250512e+09  2.74019622e+09  1.68e+01 8.96e-09  6.97e+02    51s
  17   1.67735718e+09  2.40501632e+09  1.53e+01 7.92e-09  4.82e+02    52s
  18   1.70155461e+09  2.25778353e+09  1.28e+01 8.15e-09  3.69e+02    52s
  19   1.76337423e+09  2.10494834e+09  6.45e+00 1.29e-08  2.18e+02    53s
  20   1.78200404e+09  2.00185750e+09  4.62e+00 1.34e-08  1.38e+02    54s
  21   1.80853661e+09  1.95192646e+09  2.09e+00 1.28e-08  8.55e+01    55s
  22   1.81395540e+09  1.90734405e+09  1.65e+00 1.25e-08  5.41e+01    56s
  23   1.81813530e+09  1.89935103e+09  1.32e+00 1.40e-08  4.66e+01    56s
  24   1.82135487e+09  1.88571930e+09  1.09e+00 1.34e-08  3.64e+01    57s
  25   1.82339288e+09  1.87895619e+09  9.53e-01 1.66e-08  3.12e+01    58s
  26   1.82722578e+09  1.87147501e+09  7.12e-01 1.85e-08  2.47e+01    59s
  27   1.83246478e+09  1.86482407e+09  4.26e-01 1.51e-08  1.80e+01    60s

Barrier performed 27 iterations in 60.02 seconds (57.02 work units)
Time limit reached



Root relaxation: time limit, 0 iterations, 30.83 seconds (23.55 work units)

Explored 1 nodes (0 simplex iterations) in 60.10 seconds (55.16 work units)
Thread count was 20 (of 40 available processors)

Solution count 0

Time limit reached
Best objective -, best bound 4.606954875372e+12, gap -
IIS computation: initial model status unknown, solving to determine model status
Presolve removed 13931 rows and 12605 columns (presolve time = 5s) ...
Presolve removed 16517 rows and 12605 columns (presolve time = 10s) ...
Presolve removed 16517 rows and 12605 columns (presolve time = 15s) ...
Presolve removed 16517 rows and 12605 columns (presolve time = 20s) ...
Presolve removed 16517 rows and 12605 columns (presolve time = 25s) ...
Presolve removed 16435 rows and 12574 columns
Presolve time: 27.24s
Presolved: 30534 rows, 879961 columns, 5051928 nonzeros
Variable types: 1971 continuous, 877990 integer (877952 binary)
Deterministic concurrent LP optimizer: primal simplex, dual simplex, and barrier
Showing barrier log only...

Root barrier log...

Ordering time: 2.46s

Barrier statistics:
 AA' NZ     : 2.290e+06
 Factor NZ  : 2.763e+07 (roughly 600 MB of memory)
 Factor Ops : 1.036e+11 (roughly 1 second per iteration)
 Threads    : 17

                  Objective                Residual
Iter       Primal          Dual         Primal    Dual     Compl     Time
   0  -0.00000000e+00  1.68359012e+05  9.56e+09 0.00e+00  1.69e+04    45s
   1  -0.00000000e+00  3.37184741e+05  1.92e+09 3.05e-02  3.42e+03    45s
   2  -0.00000000e+00  3.33380106e+05  9.61e+07 1.04e-03  1.73e+02    46s
   3  -0.00000000e+00  1.65659414e+05  4.65e+06 1.97e-05  8.47e+00    47s
   4  -0.00000000e+00  7.23295123e+04  3.36e+05 8.61e-06  5.19e-01    48s
   5  -0.00000000e+00  2.87478335e+04  8.37e+04 3.53e-06  1.03e-01    49s
   6  -0.00000000e+00  1.86468452e+04  3.97e+04 2.29e-06  4.29e-02    50s
   7  -0.00000000e+00  8.93370397e+03  1.15e+04 1.10e-06  1.17e-02    50s
   8  -0.00000000e+00  5.28397578e+03  3.79e+03 6.42e-07  4.75e-03    51s
   9  -0.00000000e+00  1.60933195e+03  1.49e+03 2.30e-07  1.41e-03    52s
  10  -0.00000000e+00  9.90751802e+02  6.53e+02 1.56e-07  7.60e-04    53s
  11  -0.00000000e+00  5.27458631e+02  3.23e+02 9.36e-08  3.90e-04    54s
  12  -0.00000000e+00  2.28836517e+02  1.34e+02 4.99e-08  1.66e-04    55s
  13  -0.00000000e+00  1.23885644e+02  8.75e+01 3.47e-08  9.33e-05    56s
  14  -0.00000000e+00  9.36553041e+01  7.19e+01 1.58e-08  7.27e-05    57s
  15  -0.00000000e+00  5.64252481e+01  4.60e+01 1.79e-08  4.45e-05    58s
  16  -0.00000000e+00  4.27254231e+01  4.21e+01 1.91e-08  3.55e-05    58s
  17  -0.00000000e+00  2.45162449e+01  1.86e+01 2.08e-08  1.88e-05    59s
  18  -0.00000000e+00  1.17917011e+01  8.17e+00 3.54e-08  8.61e-06    60s

Barrier performed 18 iterations in 60.16 seconds (57.04 work units)
Time limit reached



Root relaxation: time limit, 0 iterations, 24.02 seconds (20.39 work units)

Explored 1 nodes (0 simplex iterations) in 60.22 seconds (55.74 work units)
Thread count was 20 (of 40 available processors)

Solution count 0

Time limit reached
Best objective -, best bound -0.000000000000e+00, gap -
IIS runtime: 60.24 seconds (55.74 work units)
